(set-info :origin "NTS benchmark converted to SMT-LIB2 using Eldarica (http://lara.epfl.ch/w/eldarica)")
(set-logic HORN)
(declare-fun p (Real Real Real Real Real) Bool)
(assert(forall((A Real)(B Real)(C Real)(D Real)(E Real))(=>(and (and (= A 0.0) true) true) (p A B C D E))))
(assert(forall((A Real)(B Real)(C Real)(D Real)(E Real)(F Real)(G Real)(H Real)(I Real)(J Real)(K Real)(L Real)(M Real)(N Real)(O Real)(P Real)(Q Real)(R Real)(S Real)(T Real)(U Real)(V Real)(W Real)(X Real)(Y Real)(Z Real)(A1 Real)(B1 Real)(C1 Real)(D1 Real)(E1 Real)(F1 Real)(G1 Real)(H1 Real))(=>(and (or (or (or (or (or (or (or (or (or (or (or (and (and (and (and (= A 1.0) (= F 0.0)) (and (= G B) (= H C))) true) (and (and (and (and (and (and (and (and (and (and (not (not (>= (+ I 0.0) 0.0))) (not (not (<= I 1.0)))) (not (not (>= (+ J 0.0) 0.0)))) (not (not (<= J 1.0)))) (not (not (>= (+ H (- 10.0)) 0.0)))) (not (not (<= H 10.0)))) (not (not (>= (+ G (- 10.0)) 0.0)))) (not (not (<= G 10.0)))) (not (= J 0.0))) (not (not (= I 0.0)))) (not (and (or (not (= J 0.0)) (not (= (+ K 0.0) 0.0))) (or (= J 0.0) (= (+ K 0.0) 0.0)))))) (and (and (and (and (= A 1.0) (= F 1.0)) (and (= G B) (= H C))) (and (= L M) (= N O))) (and (and (and (and (and (and (and (and (and (and (and (and (and (and (and (and (and (and (and (and (and (not (not (>= (+ I 0.0) 0.0))) (not (not (<= I 1.0)))) (not (not (>= (+ P 0.0) 0.0)))) (not (not (<= P 1.0)))) (not (not (>= (+ Q 0.0) 0.0)))) (not (not (<= Q 1.0)))) (not (not (>= (+ R 0.0) 0.0)))) (not (not (<= R 1.0)))) (not (not (>= (+ J 0.0) 0.0)))) (not (not (<= J 1.0)))) (not (and (or (not (= R 0.0)) (not (= (+ S 0.0) 0.0))) (or (= R 0.0) (= (+ S 0.0) 0.0))))) (not (not (= T (+ 1.0 N))))) (not (not (= U (+ 1.0 L))))) (not (not (>= H V)))) (not (not (>= V H)))) (not (not (>= G W)))) (not (not (>= W G)))) (not (= J 0.0))) (not (not (= I 0.0)))) (not (and (= I 0.0) (not (= Q 0.0))))) (not (and (= I 0.0) (or (or (or (or (or (or (not (= P 0.0)) (not (= Q 0.0))) (not (= R 0.0))) (not (>= U W))) (not (>= W U))) (not (>= T V))) (not (>= V T)))))) (not (and (or (not (= J 0.0)) (not (= (+ K 0.0) 0.0))) (or (= J 0.0) (= (+ K 0.0) 0.0))))))) (and (and (and (and (= A 1.0) (= F 2.0)) (and (= G B) (= H C))) (and (and (and (= X M) (= Y O)) (= N Z)) (= A1 B1))) (and (and (and (and (and (and (and (and (and (and (and (and (and (and (and (and (and (and (and (and (and (and (and (and (and (and (and (not (not (>= (+ I 0.0) 0.0))) (not (not (<= I 1.0)))) (not (not (>= (+ J 0.0) 0.0)))) (not (not (<= J 1.0)))) (not (not (>= (+ P 0.0) 0.0)))) (not (not (<= P 1.0)))) (not (not (>= (+ Q 0.0) 0.0)))) (not (not (<= Q 1.0)))) (not (not (>= (+ R 0.0) 0.0)))) (not (not (<= R 1.0)))) (not (not (>= (+ S 0.0) 0.0)))) (not (not (<= S 1.0)))) (not (and (or (not (= R 0.0)) (not (= (+ C1 0.0) 0.0))) (or (= R 0.0) (= (+ C1 0.0) 0.0))))) (not (not (= T (+ A1 D1))))) (not (and (or (not (= S 0.0)) (not (= D1 E1))) (or (= S 0.0) (not (= (+ D1 (- 2.0)) 0.0)))))) (not (not (= (+ E1 (* 1.0 N)) 0.0)))) (not (and (or (not (= S 0.0)) (not (= (+ U 0.0) 0.0))) (or (= S 0.0) (not (= U L)))))) (not (and (or (not (= S 0.0)) (<= L 0.0)) (or (= S 0.0) (not (<= L 0.0)))))) (not (not (= L (+ 2.0 N))))) (not (not (>= H V)))) (not (not (>= V H)))) (not (not (>= G W)))) (not (not (>= W G)))) (not (= J 0.0))) (not (not (= I 0.0)))) (not (and (= I 0.0) (not (= Q 0.0))))) (not (and (= I 0.0) (or (or (or (or (or (or (not (= P 0.0)) (not (= Q 0.0))) (not (= R 0.0))) (not (>= U W))) (not (>= W U))) (not (>= T V))) (not (>= V T)))))) (not (and (or (not (= J 0.0)) (not (= (+ K 0.0) 0.0))) (or (= J 0.0) (= (+ K 0.0) 0.0))))))) (and (and (and (and (= A 2.0) (= F 1.0)) (and (and (and (= G B) (= H C)) (= J D)) (= K E))) (and (= R M) (= U O))) (and (and (and (and (and (and (and (and (and (and (and (and (not (not (>= (+ Q 0.0) 0.0))) (not (not (<= Q 1.0)))) (not (not (>= (+ I 0.0) 0.0)))) (not (not (<= I 1.0)))) (not (not (= H (+ 1.0 U))))) (not (not (= G (+ 1.0 R))))) (not (not (>= K H)))) (not (not (>= H K)))) (not (not (>= J G)))) (not (not (>= G J)))) (not (= I 0.0))) (not (not (= Q 0.0)))) (not (and (or (not (= I 0.0)) (not (= (+ P 0.0) 0.0))) (or (= I 0.0) (= (+ P 0.0) 0.0))))))) (and (and (and (and (= A 2.0) (= F 2.0)) (and (and (and (= G B) (= H C)) (= J D)) (= K E))) (and (and (and (= G M) (= H O)) (= T Z)) (= S B1))) (and (and (and (and (and (and (and (and (and (and (and (and (and (and (and (and (and (and (not (not (>= (+ Q 0.0) 0.0))) (not (not (<= Q 1.0)))) (not (not (>= (+ I 0.0) 0.0)))) (not (not (<= I 1.0)))) (not (not (>= (+ V 0.0) 0.0)))) (not (not (<= V 1.0)))) (not (not (= U (+ S N))))) (not (and (or (not (= V 0.0)) (not (= N L))) (or (= V 0.0) (not (= (+ N (- 2.0)) 0.0)))))) (not (not (= (+ L (* 1.0 T)) 0.0)))) (not (and (or (not (= V 0.0)) (not (= (+ R 0.0) 0.0))) (or (= V 0.0) (not (= R W)))))) (not (and (or (not (= V 0.0)) (<= W 0.0)) (or (= V 0.0) (not (<= W 0.0)))))) (not (not (= W (+ 2.0 T))))) (not (not (>= K U)))) (not (not (>= U K)))) (not (not (>= J R)))) (not (not (>= R J)))) (not (= I 0.0))) (not (not (= Q 0.0)))) (not (and (or (not (= I 0.0)) (not (= (+ P 0.0) 0.0))) (or (= I 0.0) (= (+ P 0.0) 0.0))))))) (and (and (and (and (= A 3.0) (= F 0.0)) true) true) (and (and (and (and (and (and (and (and (and (and (and (and (and (and (and (not (not (>= (+ I 0.0) 0.0))) (not (not (<= I 1.0)))) (not (not (>= (+ Q 0.0) 0.0)))) (not (not (<= Q 1.0)))) (not (not (>= (+ K 0.0) 0.0)))) (not (not (<= K 1.0)))) (not (not (>= (+ P 0.0) 0.0)))) (not (not (<= P 1.0)))) (not (not (>= (+ G 0.0) 0.0)))) (not (not (<= G 1.0)))) (not (and (or (not (= Q 0.0)) (not (= (+ R 0.0) 0.0))) (or (= Q 0.0) (= (+ R 0.0) 0.0))))) (not (= G 0.0))) (not (not (= K 0.0)))) (not (and (= K 0.0) (not (= P 0.0))))) (not (and (= K 0.0) (or (or (or (or (or (or (not (= I 0.0)) (not (= P 0.0))) (not (= Q 0.0))) (not (<= H 10.0))) (not (>= (+ H (- 10.0)) 0.0))) (not (<= J 10.0))) (not (>= (+ J (- 10.0)) 0.0)))))) (not (and (or (not (= G 0.0)) (not (= H J))) (or (= G 0.0) (= H J))))))) (and (and (and (and (= A 3.0) (= F 1.0)) true) (and (= S M) (= E1 O))) (and (and (and (and (and (and (and (and (and (and (and (and (and (and (and (and (and (and (and (and (and (and (and (and (and (and (not (not (>= (+ K 0.0) 0.0))) (not (not (<= K 1.0)))) (not (not (>= (+ I 0.0) 0.0)))) (not (not (<= I 1.0)))) (not (not (>= (+ P 0.0) 0.0)))) (not (not (<= P 1.0)))) (not (not (>= (+ Q 0.0) 0.0)))) (not (not (<= Q 1.0)))) (not (not (>= (+ N 0.0) 0.0)))) (not (not (<= N 1.0)))) (not (not (>= (+ V 0.0) 0.0)))) (not (not (<= V 1.0)))) (not (not (>= (+ G 0.0) 0.0)))) (not (not (<= G 1.0)))) (not (not (>= (+ L 0.0) 0.0)))) (not (not (<= L 1.0)))) (not (and (or (not (= N 0.0)) (not (= (+ A1 0.0) 0.0))) (or (= N 0.0) (= (+ A1 0.0) 0.0))))) (not (and (or (not (= Q 0.0)) (not (= (+ D1 0.0) 0.0))) (or (= Q 0.0) (= (+ D1 0.0) 0.0))))) (not (not (= W (+ 1.0 E1))))) (not (not (= R (+ 1.0 S))))) (not (= G 0.0))) (not (not (= V 0.0)))) (not (and (= V 0.0) (not (= L 0.0))))) (not (and (= V 0.0) (or (or (or (or (or (or (not (= K 0.0)) (not (= L 0.0))) (not (= N 0.0))) (not (>= U H))) (not (>= H U))) (not (>= T J))) (not (>= J T)))))) (not (and (= K 0.0) (not (= P 0.0))))) (not (and (= K 0.0) (or (or (or (or (or (or (not (= I 0.0)) (not (= P 0.0))) (not (= Q 0.0))) (not (>= R U))) (not (>= U R))) (not (>= W T))) (not (>= T W)))))) (not (and (or (not (= G 0.0)) (not (= H J))) (or (= G 0.0) (= H J))))))) (and (and (and (and (= A 3.0) (= F 2.0)) true) (and (and (and (= F1 M) (= G1 O)) (= E1 Z)) (= X B1))) (and (and (and (and (and (and (and (and (and (and (and (and (and (and (and (and (and (and (and (and (and (and (and (and (and (and (and (and (and (and (and (and (not (not (>= (+ K 0.0) 0.0))) (not (not (<= K 1.0)))) (not (not (>= (+ N 0.0) 0.0)))) (not (not (<= N 1.0)))) (not (not (>= (+ I 0.0) 0.0)))) (not (not (<= I 1.0)))) (not (not (>= (+ P 0.0) 0.0)))) (not (not (<= P 1.0)))) (not (not (>= (+ Q 0.0) 0.0)))) (not (not (<= Q 1.0)))) (not (not (>= (+ D1 0.0) 0.0)))) (not (not (<= D1 1.0)))) (not (not (>= (+ V 0.0) 0.0)))) (not (not (<= V 1.0)))) (not (not (>= (+ G 0.0) 0.0)))) (not (not (<= G 1.0)))) (not (not (>= (+ L 0.0) 0.0)))) (not (not (<= L 1.0)))) (not (and (or (not (= N 0.0)) (not (= (+ H1 0.0) 0.0))) (or (= N 0.0) (= (+ H1 0.0) 0.0))))) (not (and (or (not (= Q 0.0)) (not (= (+ Y 0.0) 0.0))) (or (= Q 0.0) (= (+ Y 0.0) 0.0))))) (not (not (= W (+ X C1))))) (not (and (or (not (= D1 0.0)) (not (= C1 A1))) (or (= D1 0.0) (not (= (+ C1 (- 2.0)) 0.0)))))) (not (not (= (+ A1 (* 1.0 E1)) 0.0)))) (not (and (or (not (= D1 0.0)) (not (= (+ R 0.0) 0.0))) (or (= D1 0.0) (not (= R S)))))) (not (and (or (not (= D1 0.0)) (<= S 0.0)) (or (= D1 0.0) (not (<= S 0.0)))))) (not (not (= S (+ 2.0 E1))))) (not (= G 0.0))) (not (not (= V 0.0)))) (not (and (= V 0.0) (not (= L 0.0))))) (not (and (= V 0.0) (or (or (or (or (or (or (not (= K 0.0)) (not (= L 0.0))) (not (= N 0.0))) (not (>= U H))) (not (>= H U))) (not (>= T J))) (not (>= J T)))))) (not (and (= K 0.0) (not (= P 0.0))))) (not (and (= K 0.0) (or (or (or (or (or (or (not (= I 0.0)) (not (= P 0.0))) (not (= Q 0.0))) (not (>= R U))) (not (>= U R))) (not (>= W T))) (not (>= T W)))))) (not (and (or (not (= G 0.0)) (not (= H J))) (or (= G 0.0) (= H J))))))) (and (and (and (and (= A 3.0) (= F 3.0)) true) true) (and (and (not (not (>= (+ G 0.0) 0.0))) (not (not (<= G 1.0)))) (not (not (= G 0.0)))))) (and (and (and (and (= A 4.0) (= F 0.0)) true) true) (and (and (and (and (and (and (and (and (and (and (and (and (and (and (and (not (not (>= (+ I 0.0) 0.0))) (not (not (<= I 1.0)))) (not (not (>= (+ Q 0.0) 0.0)))) (not (not (<= Q 1.0)))) (not (not (>= (+ K 0.0) 0.0)))) (not (not (<= K 1.0)))) (not (not (>= (+ P 0.0) 0.0)))) (not (not (<= P 1.0)))) (not (not (>= (+ G 0.0) 0.0)))) (not (not (<= G 1.0)))) (not (and (or (not (= Q 0.0)) (not (= (+ R 0.0) 0.0))) (or (= Q 0.0) (= (+ R 0.0) 0.0))))) (not (not (= G 0.0)))) (not (not (= K 0.0)))) (not (and (= K 0.0) (not (= P 0.0))))) (not (and (= K 0.0) (or (or (or (or (or (or (not (= I 0.0)) (not (= P 0.0))) (not (= Q 0.0))) (not (<= H 10.0))) (not (>= (+ H (- 10.0)) 0.0))) (not (<= J 10.0))) (not (>= (+ J (- 10.0)) 0.0)))))) (not (and (or (not (= G 0.0)) (not (= H J))) (or (= G 0.0) (= H J))))))) (and (and (and (and (= A 4.0) (= F 1.0)) true) (and (= S M) (= E1 O))) (and (and (and (and (and (and (and (and (and (and (and (and (and (and (and (and (and (and (and (and (and (and (and (and (and (and (not (not (>= (+ K 0.0) 0.0))) (not (not (<= K 1.0)))) (not (not (>= (+ I 0.0) 0.0)))) (not (not (<= I 1.0)))) (not (not (>= (+ P 0.0) 0.0)))) (not (not (<= P 1.0)))) (not (not (>= (+ Q 0.0) 0.0)))) (not (not (<= Q 1.0)))) (not (not (>= (+ N 0.0) 0.0)))) (not (not (<= N 1.0)))) (not (not (>= (+ V 0.0) 0.0)))) (not (not (<= V 1.0)))) (not (not (>= (+ G 0.0) 0.0)))) (not (not (<= G 1.0)))) (not (not (>= (+ L 0.0) 0.0)))) (not (not (<= L 1.0)))) (not (and (or (not (= N 0.0)) (not (= (+ A1 0.0) 0.0))) (or (= N 0.0) (= (+ A1 0.0) 0.0))))) (not (and (or (not (= Q 0.0)) (not (= (+ D1 0.0) 0.0))) (or (= Q 0.0) (= (+ D1 0.0) 0.0))))) (not (not (= W (+ 1.0 E1))))) (not (not (= R (+ 1.0 S))))) (not (not (= G 0.0)))) (not (not (= V 0.0)))) (not (and (= V 0.0) (not (= L 0.0))))) (not (and (= V 0.0) (or (or (or (or (or (or (not (= K 0.0)) (not (= L 0.0))) (not (= N 0.0))) (not (>= U H))) (not (>= H U))) (not (>= T J))) (not (>= J T)))))) (not (and (= K 0.0) (not (= P 0.0))))) (not (and (= K 0.0) (or (or (or (or (or (or (not (= I 0.0)) (not (= P 0.0))) (not (= Q 0.0))) (not (>= R U))) (not (>= U R))) (not (>= W T))) (not (>= T W)))))) (not (and (or (not (= G 0.0)) (not (= H J))) (or (= G 0.0) (= H J))))))) (and (and (and (and (= A 4.0) (= F 2.0)) true) (and (and (and (= F1 M) (= G1 O)) (= E1 Z)) (= X B1))) (and (and (and (and (and (and (and (and (and (and (and (and (and (and (and (and (and (and (and (and (and (and (and (and (and (and (and (and (and (and (and (and (not (not (>= (+ K 0.0) 0.0))) (not (not (<= K 1.0)))) (not (not (>= (+ N 0.0) 0.0)))) (not (not (<= N 1.0)))) (not (not (>= (+ I 0.0) 0.0)))) (not (not (<= I 1.0)))) (not (not (>= (+ P 0.0) 0.0)))) (not (not (<= P 1.0)))) (not (not (>= (+ Q 0.0) 0.0)))) (not (not (<= Q 1.0)))) (not (not (>= (+ D1 0.0) 0.0)))) (not (not (<= D1 1.0)))) (not (not (>= (+ V 0.0) 0.0)))) (not (not (<= V 1.0)))) (not (not (>= (+ G 0.0) 0.0)))) (not (not (<= G 1.0)))) (not (not (>= (+ L 0.0) 0.0)))) (not (not (<= L 1.0)))) (not (and (or (not (= N 0.0)) (not (= (+ H1 0.0) 0.0))) (or (= N 0.0) (= (+ H1 0.0) 0.0))))) (not (and (or (not (= Q 0.0)) (not (= (+ Y 0.0) 0.0))) (or (= Q 0.0) (= (+ Y 0.0) 0.0))))) (not (not (= W (+ X C1))))) (not (and (or (not (= D1 0.0)) (not (= C1 A1))) (or (= D1 0.0) (not (= (+ C1 (- 2.0)) 0.0)))))) (not (not (= (+ A1 (* 1.0 E1)) 0.0)))) (not (and (or (not (= D1 0.0)) (not (= (+ R 0.0) 0.0))) (or (= D1 0.0) (not (= R S)))))) (not (and (or (not (= D1 0.0)) (<= S 0.0)) (or (= D1 0.0) (not (<= S 0.0)))))) (not (not (= S (+ 2.0 E1))))) (not (not (= G 0.0)))) (not (not (= V 0.0)))) (not (and (= V 0.0) (not (= L 0.0))))) (not (and (= V 0.0) (or (or (or (or (or (or (not (= K 0.0)) (not (= L 0.0))) (not (= N 0.0))) (not (>= U H))) (not (>= H U))) (not (>= T J))) (not (>= J T)))))) (not (and (= K 0.0) (not (= P 0.0))))) (not (and (= K 0.0) (or (or (or (or (or (or (not (= I 0.0)) (not (= P 0.0))) (not (= Q 0.0))) (not (>= R U))) (not (>= U R))) (not (>= W T))) (not (>= T W)))))) (not (and (or (not (= G 0.0)) (not (= H J))) (or (= G 0.0) (= H J))))))) (p F M O Z B1)) (p A B C D E))))
(assert(not (exists((A Real)(B Real)(C Real)(D Real)(E Real))(and (and (and (= A 4.0) true) true) (p A B C D E)))))
(check-sat)
